benchmarks/bfuzz0/265913109018160247181040213090607617563.smt2
(set-logic QF_FP)
(declare-const x0 (_ FloatingPoint 11 53))
(declare-const x1 (_ FloatingPoint 11 53))
(declare-const x2 (_ FloatingPoint 11 53))
(declare-const x3 (_ FloatingPoint 11 53))
(declare-const x4 (_ FloatingPoint 11 53))
(assert (fp.geq (fp.mul RNE (fp.neg x3) (fp.div RNE x0 x4)) (fp.sub RNE (fp.mul RNE x1 x2) (fp.div RNE x2 x2))))
(check-sat)
