db/data/265913109018160247181040213090607617563.z3.out
sat
-------------------
126.167258965
